p cnf 969 2490
51 -702 -703 0
-51 702 0
-51 703 0
52 -51 -704 0
-52 51 0
-52 704 0
53 -5 -4 0
-53 5 0
-53 4 0
54 -53 -705 0
-54 53 0
-54 705 0
55 -706 -707 0
-55 706 0
-55 707 0
56 -708 -7 0
-56 708 0
-56 7 0
57 -56 -9 0
-57 56 0
-57 9 0
58 -709 -55 0
-58 709 0
-58 55 0
59 -710 -7 0
-59 710 0
-59 7 0
60 -59 -11 0
-60 59 0
-60 11 0
61 -711 -58 0
-61 711 0
-61 58 0
62 -712 -12 0
-62 712 0
-62 12 0
63 -62 -713 0
-63 62 0
-63 713 0
64 -714 -61 0
-64 714 0
-64 61 0
65 -15 -715 0
-65 15 0
-65 715 0
66 -65 -716 0
-66 65 0
-66 716 0
67 -717 -64 0
-67 717 0
-67 64 0
68 -718 -1 0
-68 718 0
-68 1 0
69 -68 -719 0
-69 68 0
-69 719 0
70 -720 -67 0
-70 720 0
-70 67 0
71 -12 -11 0
-71 12 0
-71 11 0
72 -71 -19 0
-72 71 0
-72 19 0
73 -721 -70 0
-73 721 0
-73 70 0
74 -21 -722 0
-74 21 0
-74 722 0
75 -74 -22 0
-75 74 0
-75 22 0
76 -723 -73 0
-76 723 0
-76 73 0
77 -724 -23 0
-77 724 0
-77 23 0
78 -77 -725 0
-78 77 0
-78 725 0
79 -726 -76 0
-79 726 0
-79 76 0
80 -26 -4 0
-80 26 0
-80 4 0
81 -80 -9 0
-81 80 0
-81 9 0
82 -727 -79 0
-82 727 0
-82 79 0
83 -728 -27 0
-83 728 0
-83 27 0
84 -83 -729 0
-84 83 0
-84 729 0
85 -730 -82 0
-85 730 0
-85 82 0
86 -30 -728 0
-86 30 0
-86 728 0
87 -86 -731 0
-87 86 0
-87 731 0
88 -732 -85 0
-88 732 0
-88 85 0
89 -27 -733 0
-89 27 0
-89 733 0
90 -89 -734 0
-90 89 0
-90 734 0
91 -735 -88 0
-91 735 0
-91 88 0
92 -728 -12 0
-92 728 0
-92 12 0
93 -92 -32 0
-93 92 0
-93 32 0
94 -736 -91 0
-94 736 0
-94 91 0
95 -33 -715 0
-95 33 0
-95 715 0
96 -95 -16 0
-96 95 0
-96 16 0
97 -737 -94 0
-97 737 0
-97 94 0
98 -34 -5 0
-98 34 0
-98 5 0
99 -98 -738 0
-99 98 0
-99 738 0
100 -739 -97 0
-100 739 0
-100 97 0
101 -15 -6 0
-101 15 0
-101 6 0
102 -101 -740 0
-102 101 0
-102 740 0
103 -741 -100 0
-103 741 0
-103 100 0
104 -742 -12 0
-104 742 0
-104 12 0
105 -104 -740 0
-105 104 0
-105 740 0
106 -743 -103 0
-106 743 0
-106 103 0
107 -17 -708 0
-107 17 0
-107 708 0
108 -107 -716 0
-108 107 0
-108 716 0
109 -744 -106 0
-109 744 0
-109 106 0
110 -745 -7 0
-110 745 0
-110 7 0
111 -110 -719 0
-111 110 0
-111 719 0
112 -746 -109 0
-112 746 0
-112 109 0
113 -29 -12 0
-113 29 0
-113 12 0
114 -113 -3 0
-114 113 0
-114 3 0
115 -747 -112 0
-115 747 0
-115 112 0
116 -36 -12 0
-116 36 0
-116 12 0
117 -116 -3 0
-117 116 0
-117 3 0
118 -748 -115 0
-118 748 0
-118 115 0
119 -37 -712 0
-119 37 0
-119 712 0
120 -119 -719 0
-120 119 0
-120 719 0
121 -749 -118 0
-121 749 0
-121 118 0
122 -725 -5 0
-122 725 0
-122 5 0
123 -122 -35 0
-123 122 0
-123 35 0
124 -750 -121 0
-124 750 0
-124 121 0
125 -28 -12 0
-125 28 0
-125 12 0
126 -125 -5 0
-126 125 0
-126 5 0
127 -751 -124 0
-127 751 0
-127 124 0
128 -15 -752 0
-128 15 0
-128 752 0
129 -128 -753 0
-129 128 0
-129 753 0
130 -754 -127 0
-130 754 0
-130 127 0
131 -27 -12 0
-131 27 0
-131 12 0
132 -131 -722 0
-132 131 0
-132 722 0
133 -755 -130 0
-133 755 0
-133 130 0
134 -756 -757 0
-134 756 0
-134 757 0
135 -134 -740 0
-135 134 0
-135 740 0
136 -758 -133 0
-136 758 0
-136 133 0
137 -729 -20 0
-137 729 0
-137 20 0
138 -137 -38 0
-138 137 0
-138 38 0
139 -759 -136 0
-139 759 0
-139 136 0
140 -39 -12 0
-140 39 0
-140 12 0
141 -140 -702 0
-141 140 0
-141 702 0
142 -760 -139 0
-142 760 0
-142 139 0
143 -710 -8 0
-143 710 0
-143 8 0
144 -143 -761 0
-144 143 0
-144 761 0
145 -762 -142 0
-145 762 0
-145 142 0
146 -763 -10 0
-146 763 0
-146 10 0
147 -146 -764 0
-147 146 0
-147 764 0
148 -765 -145 0
-148 765 0
-148 145 0
149 -722 -9 0
-149 722 0
-149 9 0
150 -149 -42 0
-150 149 0
-150 42 0
151 -766 -148 0
-151 766 0
-151 148 0
152 -41 -767 0
-152 41 0
-152 767 0
153 -152 -753 0
-153 152 0
-153 753 0
154 -768 -151 0
-154 768 0
-154 151 0
155 -761 -708 0
-155 761 0
-155 708 0
156 -155 -16 0
-156 155 0
-156 16 0
157 -769 -154 0
-157 769 0
-157 154 0
158 -770 -771 0
-158 770 0
-158 771 0
159 -158 -43 0
-159 158 0
-159 43 0
160 -772 -157 0
-160 772 0
-160 157 0
161 -770 -708 0
-161 770 0
-161 708 0
162 -161 -719 0
-162 161 0
-162 719 0
163 -773 -160 0
-163 773 0
-163 160 0
164 -10 -5 0
-164 10 0
-164 5 0
165 -164 -774 0
-165 164 0
-165 774 0
166 -775 -163 0
-166 775 0
-166 163 0
167 -764 -24 0
-167 764 0
-167 24 0
168 -167 -733 0
-168 167 0
-168 733 0
169 -776 -166 0
-169 776 0
-169 166 0
170 -777 -708 0
-170 777 0
-170 708 0
171 -170 -16 0
-171 170 0
-171 16 0
172 -778 -169 0
-172 778 0
-172 169 0
173 -716 -9 0
-173 716 0
-173 9 0
174 -173 -38 0
-174 173 0
-174 38 0
175 -779 -172 0
-175 779 0
-175 172 0
176 -25 -11 0
-176 25 0
-176 11 0
177 -176 -702 0
-177 176 0
-177 702 0
178 -780 -175 0
-178 780 0
-178 175 0
179 -781 -29 0
-179 781 0
-179 29 0
180 -179 -782 0
-180 179 0
-180 782 0
181 -783 -178 0
-181 783 0
-181 178 0
182 -30 -756 0
-182 30 0
-182 756 0
183 -182 -705 0
-183 182 0
-183 705 0
184 -784 -181 0
-184 784 0
-184 181 0
185 -8 -7 0
-185 8 0
-185 7 0
186 -185 -785 0
-186 185 0
-186 785 0
187 -786 -184 0
-187 786 0
-187 184 0
188 -787 -710 0
-188 787 0
-188 710 0
189 -188 -47 0
-189 188 0
-189 47 0
190 -788 -187 0
-190 788 0
-190 187 0
191 -41 -27 0
-191 41 0
-191 27 0
192 -191 -16 0
-192 191 0
-192 16 0
193 -789 -190 0
-193 789 0
-193 190 0
194 -724 -715 0
-194 724 0
-194 715 0
195 -194 -725 0
-195 194 0
-195 725 0
196 -790 -193 0
-196 790 0
-196 193 0
197 -28 -791 0
-197 28 0
-197 791 0
198 -197 -761 0
-198 197 0
-198 761 0
199 -792 -196 0
-199 792 0
-199 196 0
200 -48 -9 0
-200 48 0
-200 9 0
201 -200 -793 0
-201 200 0
-201 793 0
202 -794 -199 0
-202 794 0
-202 199 0
203 -27 -708 0
-203 27 0
-203 708 0
204 -203 -49 0
-204 203 0
-204 49 0
205 -795 -202 0
-205 795 0
-205 202 0
206 -24 -2 0
-206 24 0
-206 2 0
207 -206 -29 0
-207 206 0
-207 29 0
208 -796 -205 0
-208 796 0
-208 205 0
209 -763 -757 0
-209 763 0
-209 757 0
210 -209 -797 0
-210 209 0
-210 797 0
211 -798 -208 0
-211 798 0
-211 208 0
212 -50 -43 0
-212 50 0
-212 43 0
213 -212 -716 0
-213 212 0
-213 716 0
214 -799 -211 0
-214 799 0
-214 211 0
215 -728 -10 0
-215 728 0
-215 10 0
216 -215 -719 0
-216 215 0
-216 719 0
217 -800 -214 0
-217 800 0
-217 214 0
218 -27 -9 0
-218 27 0
-218 9 0
219 -218 -25 0
-219 218 0
-219 25 0
220 -801 -217 0
-220 801 0
-220 217 0
221 -43 -20 0
-221 43 0
-221 20 0
222 -221 -742 0
-222 221 0
-222 742 0
223 -802 -220 0
-223 802 0
-223 220 0
224 -44 -17 0
-224 44 0
-224 17 0
225 -224 -37 0
-225 224 0
-225 37 0
226 -803 -223 0
-226 803 0
-226 223 0
227 -27 -702 0
-227 27 0
-227 702 0
228 -227 -40 0
-228 227 0
-228 40 0
229 -804 -226 0
-229 804 0
-229 226 0
230 -30 -703 0
-230 30 0
-230 703 0
231 -230 -38 0
-231 230 0
-231 38 0
232 -805 -229 0
-232 805 0
-232 229 0
233 -45 -753 0
-233 45 0
-233 753 0
234 -233 -19 0
-234 233 0
-234 19 0
235 -806 -232 0
-235 806 0
-235 232 0
236 -807 -797 0
-236 807 0
-236 797 0
237 -236 -761 0
-237 236 0
-237 761 0
238 -808 -235 0
-238 808 0
-238 235 0
239 -785 -771 0
-239 785 0
-239 771 0
240 -239 -713 0
-240 239 0
-240 713 0
241 -809 -238 0
-241 809 0
-241 238 0
242 -797 -32 0
-242 797 0
-242 32 0
243 -242 -42 0
-243 242 0
-243 42 0
244 -810 -241 0
-244 810 0
-244 241 0
245 -44 -41 0
-245 44 0
-245 41 0
246 -245 -740 0
-246 245 0
-246 740 0
247 -811 -244 0
-247 811 0
-247 244 0
248 -11 -3 0
-248 11 0
-248 3 0
249 -248 -812 0
-249 248 0
-249 812 0
250 -813 -247 0
-250 813 0
-250 247 0
251 -718 -733 0
-251 718 0
-251 733 0
252 -251 -761 0
-252 251 0
-252 761 0
253 -814 -250 0
-253 814 0
-253 250 0
254 -46 -43 0
-254 46 0
-254 43 0
255 -254 -738 0
-255 254 0
-255 738 0
256 -815 -253 0
-256 815 0
-256 253 0
257 -761 -29 0
-257 761 0
-257 29 0
258 -257 -816 0
-258 257 0
-258 816 0
259 -817 -256 0
-259 817 0
-259 256 0
260 -46 -781 0
-260 46 0
-260 781 0
261 -260 -753 0
-261 260 0
-261 753 0
262 -818 -259 0
-262 818 0
-262 259 0
263 -819 -770 0
-263 819 0
-263 770 0
264 -263 -44 0
-264 263 0
-264 44 0
265 -820 -262 0
-265 820 0
-265 262 0
266 -40 -5 0
-266 40 0
-266 5 0
267 -266 -6 0
-267 266 0
-267 6 0
268 -821 -265 0
-268 821 0
-268 265 0
269 -24 -13 0
-269 24 0
-269 13 0
270 -269 -17 0
-270 269 0
-270 17 0
271 -822 -268 0
-271 822 0
-271 268 0
272 -21 -9 0
-272 21 0
-272 9 0
273 -272 -43 0
-273 272 0
-273 43 0
274 -823 -271 0
-274 823 0
-274 271 0
275 -30 -8 0
-275 30 0
-275 8 0
276 -275 -752 0
-276 275 0
-276 752 0
277 -824 -274 0
-277 824 0
-277 274 0
278 -710 -9 0
-278 710 0
-278 9 0
279 -278 -19 0
-279 278 0
-279 19 0
280 -825 -277 0
-280 825 0
-280 277 0
281 -712 -8 0
-281 712 0
-281 8 0
282 -281 -22 0
-282 281 0
-282 22 0
283 -826 -280 0
-283 826 0
-283 280 0
284 -807 -10 0
-284 807 0
-284 10 0
285 -284 -718 0
-285 284 0
-285 718 0
286 -827 -283 0
-286 827 0
-286 283 0
287 -18 -9 0
-287 18 0
-287 9 0
288 -287 -16 0
-288 287 0
-288 16 0
289 -828 -286 0
-289 828 0
-289 286 0
290 -33 -704 0
-290 33 0
-290 704 0
291 -290 -47 0
-291 290 0
-291 47 0
292 -829 -289 0
-292 829 0
-292 289 0
293 -41 -752 0
-293 41 0
-293 752 0
294 -293 -704 0
-294 293 0
-294 704 0
295 -830 -292 0
-295 830 0
-295 292 0
296 -771 -724 0
-296 771 0
-296 724 0
297 -296 -22 0
-297 296 0
-297 22 0
298 -831 -295 0
-298 831 0
-298 295 0
299 -774 -17 0
-299 774 0
-299 17 0
300 -299 -42 0
-300 299 0
-300 42 0
301 -832 -298 0
-301 832 0
-301 298 0
302 -833 -722 0
-302 833 0
-302 722 0
303 -302 -22 0
-303 302 0
-303 22 0
304 -834 -301 0
-304 834 0
-304 301 0
305 -43 -704 0
-305 43 0
-305 704 0
306 -305 -38 0
-306 305 0
-306 38 0
307 -835 -304 0
-307 835 0
-307 304 0
308 -734 -17 0
-308 734 0
-308 17 0
309 -308 -5 0
-309 308 0
-309 5 0
310 -836 -307 0
-310 836 0
-310 307 0
311 -756 -715 0
-311 756 0
-311 715 0
312 -311 -816 0
-312 311 0
-312 816 0
313 -837 -310 0
-313 837 0
-313 310 0
314 -770 -725 0
-314 770 0
-314 725 0
315 -314 -14 0
-315 314 0
-315 14 0
316 -838 -313 0
-316 838 0
-316 313 0
317 -734 -722 0
-317 734 0
-317 722 0
318 -317 -740 0
-318 317 0
-318 740 0
319 -839 -316 0
-319 839 0
-319 316 0
320 -757 -733 0
-320 757 0
-320 733 0
321 -320 -753 0
-321 320 0
-321 753 0
322 -840 -319 0
-322 840 0
-322 319 0
323 -819 -731 0
-323 819 0
-323 731 0
324 -323 -16 0
-324 323 0
-324 16 0
325 -841 -322 0
-325 841 0
-325 322 0
326 -33 -20 0
-326 33 0
-326 20 0
327 -326 -28 0
-327 326 0
-327 28 0
328 -842 -325 0
-328 842 0
-328 325 0
329 -41 -745 0
-329 41 0
-329 745 0
330 -329 -46 0
-330 329 0
-330 46 0
331 -843 -328 0
-331 843 0
-331 328 0
332 -36 -833 0
-332 36 0
-332 833 0
333 -332 -782 0
-333 332 0
-333 782 0
334 -844 -331 0
-334 844 0
-334 331 0
335 -777 -17 0
-335 777 0
-335 17 0
336 -335 -812 0
-336 335 0
-336 812 0
337 -845 -334 0
-337 845 0
-337 334 0
338 -49 -756 0
-338 49 0
-338 756 0
339 -338 -816 0
-339 338 0
-339 816 0
340 -846 -337 0
-340 846 0
-340 337 0
341 -39 -30 0
-341 39 0
-341 30 0
342 -341 -728 0
-342 341 0
-342 728 0
343 -847 -340 0
-343 847 0
-343 340 0
344 -797 -23 0
-344 797 0
-344 23 0
345 -344 -740 0
-345 344 0
-345 740 0
346 -848 -343 0
-346 848 0
-346 343 0
347 -30 -24 0
-347 30 0
-347 24 0
348 -347 -849 0
-348 347 0
-348 849 0
349 -850 -346 0
-349 850 0
-349 346 0
350 -26 -6 0
-350 26 0
-350 6 0
351 -350 -38 0
-351 350 0
-351 38 0
352 -851 -349 0
-352 851 0
-352 349 0
353 -728 -722 0
-353 728 0
-353 722 0
354 -353 -742 0
-354 353 0
-354 742 0
355 -852 -352 0
-355 852 0
-355 352 0
356 -833 -703 0
-356 833 0
-356 703 0
357 -356 -14 0
-357 356 0
-357 14 0
358 -853 -355 0
-358 853 0
-358 355 0
359 -49 -785 0
-359 49 0
-359 785 0
360 -359 -29 0
-360 359 0
-360 29 0
361 -854 -358 0
-361 854 0
-361 358 0
362 -738 -733 0
-362 738 0
-362 733 0
363 -362 -38 0
-363 362 0
-363 38 0
364 -855 -361 0
-364 855 0
-364 361 0
365 -705 -1 0
-365 705 0
-365 1 0
366 -365 -738 0
-366 365 0
-366 738 0
367 -856 -364 0
-367 856 0
-367 364 0
368 -30 -13 0
-368 30 0
-368 13 0
369 -368 -704 0
-369 368 0
-369 704 0
370 -857 -367 0
-370 857 0
-370 367 0
371 -763 -24 0
-371 763 0
-371 24 0
372 -371 -2 0
-372 371 0
-372 2 0
373 -858 -370 0
-373 858 0
-373 370 0
374 -710 -793 0
-374 710 0
-374 793 0
375 -374 -725 0
-375 374 0
-375 725 0
376 -859 -373 0
-376 859 0
-376 373 0
377 -849 -733 0
-377 849 0
-377 733 0
378 -377 -15 0
-378 377 0
-378 15 0
379 -860 -376 0
-379 860 0
-379 376 0
380 -39 -28 0
-380 39 0
-380 28 0
381 -380 -29 0
-381 380 0
-381 29 0
382 -861 -379 0
-382 861 0
-382 379 0
383 -738 -705 0
-383 738 0
-383 705 0
384 -383 -38 0
-384 383 0
-384 38 0
385 -862 -382 0
-385 862 0
-385 382 0
386 -756 -710 0
-386 756 0
-386 710 0
387 -386 -16 0
-387 386 0
-387 16 0
388 -863 -385 0
-388 863 0
-388 385 0
389 -33 -734 0
-389 33 0
-389 734 0
390 -389 -742 0
-390 389 0
-390 742 0
391 -864 -388 0
-391 864 0
-391 388 0
392 -785 -39 0
-392 785 0
-392 39 0
393 -392 -3 0
-393 392 0
-393 3 0
394 -865 -391 0
-394 865 0
-394 391 0
395 -728 -734 0
-395 728 0
-395 734 0
396 -395 -705 0
-396 395 0
-396 705 0
397 -866 -394 0
-397 866 0
-397 394 0
398 -20 -767 0
-398 20 0
-398 767 0
399 -398 -728 0
-399 398 0
-399 728 0
400 -867 -397 0
-400 867 0
-400 397 0
401 -771 -722 0
-401 771 0
-401 722 0
402 -401 -734 0
-402 401 0
-402 734 0
403 -868 -400 0
-403 868 0
-403 400 0
404 -39 -767 0
-404 39 0
-404 767 0
405 -404 -9 0
-405 404 0
-405 9 0
406 -869 -403 0
-406 869 0
-406 403 0
407 -41 -704 0
-407 41 0
-407 704 0
408 -407 -42 0
-408 407 0
-408 42 0
409 -870 -406 0
-409 870 0
-409 406 0
410 -761 -33 0
-410 761 0
-410 33 0
411 -410 -740 0
-411 410 0
-411 740 0
412 -871 -409 0
-412 871 0
-412 409 0
413 -785 -33 0
-413 785 0
-413 33 0
414 -413 -787 0
-414 413 0
-414 787 0
415 -872 -412 0
-415 872 0
-415 412 0
416 -26 -19 0
-416 26 0
-416 19 0
417 -416 -740 0
-417 416 0
-417 740 0
418 -873 -415 0
-418 873 0
-418 415 0
419 -23 -757 0
-419 23 0
-419 757 0
420 -419 -752 0
-420 419 0
-420 752 0
421 -874 -418 0
-421 874 0
-421 418 0
422 -764 -20 0
-422 764 0
-422 20 0
423 -422 -18 0
-423 422 0
-423 18 0
424 -875 -421 0
-424 875 0
-424 421 0
425 -13 -10 0
-425 13 0
-425 10 0
426 -425 -807 0
-426 425 0
-426 807 0
427 -876 -424 0
-427 876 0
-427 424 0
428 -734 -724 0
-428 734 0
-428 724 0
429 -428 -793 0
-429 428 0
-429 793 0
430 -877 -427 0
-430 877 0
-430 427 0
431 -797 -761 0
-431 797 0
-431 761 0
432 -431 -38 0
-432 431 0
-432 38 0
433 -878 -430 0
-433 878 0
-433 430 0
434 -30 -26 0
-434 30 0
-434 26 0
435 -434 -1 0
-435 434 0
-435 1 0
436 -879 -433 0
-436 879 0
-436 433 0
437 -763 -35 0
-437 763 0
-437 35 0
438 -437 -782 0
-438 437 0
-438 782 0
439 -880 -436 0
-439 880 0
-439 436 0
440 -764 -27 0
-440 764 0
-440 27 0
441 -440 -819 0
-441 440 0
-441 819 0
442 -881 -439 0
-442 881 0
-442 439 0
443 -833 -8 0
-443 833 0
-443 8 0
444 -443 -729 0
-444 443 0
-444 729 0
445 -882 -442 0
-445 882 0
-445 442 0
446 -883 -733 0
-446 883 0
-446 733 0
447 -446 -752 0
-447 446 0
-447 752 0
448 -884 -445 0
-448 884 0
-448 445 0
449 -46 -23 0
-449 46 0
-449 23 0
450 -449 -756 0
-450 449 0
-450 756 0
451 -885 -448 0
-451 885 0
-451 448 0
452 -45 -708 0
-452 45 0
-452 708 0
453 -452 -777 0
-453 452 0
-453 777 0
454 -886 -451 0
-454 886 0
-454 451 0
455 -40 -24 0
-455 40 0
-455 24 0
456 -455 -719 0
-456 455 0
-456 719 0
457 -887 -454 0
-457 887 0
-457 454 0
458 -797 -25 0
-458 797 0
-458 25 0
459 -458 -729 0
-459 458 0
-459 729 0
460 -888 -457 0
-460 888 0
-460 457 0
461 -833 -883 0
-461 833 0
-461 883 0
462 -461 -26 0
-462 461 0
-462 26 0
463 -889 -460 0
-463 889 0
-463 460 0
464 -48 -6 0
-464 48 0
-464 6 0
465 -464 -777 0
-465 464 0
-465 777 0
466 -890 -463 0
-466 890 0
-466 463 0
467 -50 -722 0
-467 50 0
-467 722 0
468 -467 -6 0
-468 467 0
-468 6 0
469 -891 -466 0
-469 891 0
-469 466 0
470 -819 -26 0
-470 819 0
-470 26 0
471 -470 -47 0
-471 470 0
-471 47 0
472 -892 -469 0
-472 892 0
-472 469 0
473 -24 -12 0
-473 24 0
-473 12 0
474 -473 -37 0
-474 473 0
-474 37 0
475 -893 -472 0
-475 893 0
-475 472 0
476 -812 -742 0
-476 812 0
-476 742 0
477 -476 -782 0
-477 476 0
-477 782 0
478 -894 -475 0
-478 894 0
-478 475 0
479 -36 -734 0
-479 36 0
-479 734 0
480 -479 -22 0
-480 479 0
-480 22 0
481 -895 -478 0
-481 895 0
-481 478 0
482 -6 -702 0
-482 6 0
-482 702 0
483 -482 -16 0
-483 482 0
-483 16 0
484 -896 -481 0
-484 896 0
-484 481 0
485 -20 -715 0
-485 20 0
-485 715 0
486 -485 -797 0
-486 485 0
-486 797 0
487 -897 -484 0
-487 897 0
-487 484 0
488 -33 -4 0
-488 33 0
-488 4 0
489 -488 -718 0
-489 488 0
-489 718 0
490 -898 -487 0
-490 898 0
-490 487 0
491 -716 -752 0
-491 716 0
-491 752 0
492 -491 -38 0
-492 491 0
-492 38 0
493 -899 -490 0
-493 899 0
-493 490 0
494 -883 -27 0
-494 883 0
-494 27 0
495 -494 -8 0
-495 494 0
-495 8 0
496 -900 -493 0
-496 900 0
-496 493 0
497 -74 -38 0
-497 74 0
-497 38 0
498 -901 -496 0
-498 901 0
-498 496 0
499 -41 -10 0
-499 41 0
-499 10 0
500 -499 -722 0
-500 499 0
-500 722 0
501 -902 -498 0
-501 902 0
-501 498 0
502 -833 -752 0
-502 833 0
-502 752 0
503 -502 -2 0
-503 502 0
-503 2 0
504 -903 -501 0
-504 903 0
-504 501 0
505 -797 -770 0
-505 797 0
-505 770 0
506 -505 -6 0
-506 505 0
-506 6 0
507 -904 -504 0
-507 904 0
-507 504 0
508 -781 -753 0
-508 781 0
-508 753 0
509 -508 -14 0
-509 508 0
-509 14 0
510 -905 -507 0
-510 905 0
-510 507 0
511 -785 -2 0
-511 785 0
-511 2 0
512 -511 -738 0
-512 511 0
-512 738 0
513 -906 -510 0
-513 906 0
-513 510 0
514 -26 -702 0
-514 26 0
-514 702 0
515 -514 -705 0
-515 514 0
-515 705 0
516 -907 -513 0
-516 907 0
-516 513 0
517 -12 -9 0
-517 12 0
-517 9 0
518 -517 -704 0
-518 517 0
-518 704 0
519 -908 -516 0
-519 908 0
-519 516 0
520 -833 -15 0
-520 833 0
-520 15 0
521 -520 -725 0
-521 520 0
-521 725 0
522 -909 -519 0
-522 909 0
-522 519 0
523 -48 -4 0
-523 48 0
-523 4 0
524 -523 -740 0
-524 523 0
-524 740 0
525 -910 -522 0
-525 910 0
-525 522 0
526 -48 -30 0
-526 48 0
-526 30 0
527 -526 -716 0
-527 526 0
-527 716 0
528 -911 -525 0
-528 911 0
-528 525 0
529 -774 -34 0
-529 774 0
-529 34 0
530 -529 -729 0
-530 529 0
-530 729 0
531 -912 -528 0
-531 912 0
-531 528 0
532 -41 -39 0
-532 41 0
-532 39 0
533 -532 -782 0
-533 532 0
-533 782 0
534 -913 -531 0
-534 913 0
-534 531 0
535 -21 -5 0
-535 21 0
-535 5 0
536 -535 -740 0
-536 535 0
-536 740 0
537 -914 -534 0
-537 914 0
-537 534 0
538 -46 -791 0
-538 46 0
-538 791 0
539 -538 -793 0
-539 538 0
-539 793 0
540 -915 -537 0
-540 915 0
-540 537 0
541 -771 -708 0
-541 771 0
-541 708 0
542 -541 -1 0
-542 541 0
-542 1 0
543 -916 -540 0
-543 916 0
-543 540 0
544 -785 -833 0
-544 785 0
-544 833 0
545 -544 -738 0
-545 544 0
-545 738 0
546 -917 -543 0
-546 917 0
-546 543 0
547 -13 -752 0
-547 13 0
-547 752 0
548 -547 -731 0
-548 547 0
-548 731 0
549 -918 -546 0
-549 918 0
-549 546 0
550 -33 -26 0
-550 33 0
-550 26 0
551 -550 -38 0
-551 550 0
-551 38 0
552 -919 -549 0
-552 919 0
-552 549 0
553 -712 -4 0
-553 712 0
-553 4 0
554 -553 -812 0
-554 553 0
-554 812 0
555 -920 -552 0
-555 920 0
-555 552 0
556 -752 -4 0
-556 752 0
-556 4 0
557 -556 -719 0
-557 556 0
-557 719 0
558 -921 -555 0
-558 921 0
-558 555 0
559 -32 -8 0
-559 32 0
-559 8 0
560 -559 -787 0
-560 559 0
-560 787 0
561 -922 -558 0
-561 922 0
-561 558 0
562 -24 -10 0
-562 24 0
-562 10 0
563 -562 -8 0
-563 562 0
-563 8 0
564 -923 -561 0
-564 923 0
-564 561 0
565 -23 -703 0
-565 23 0
-565 703 0
566 -565 -777 0
-566 565 0
-566 777 0
567 -924 -564 0
-567 924 0
-567 564 0
568 -734 -18 0
-568 734 0
-568 18 0
569 -568 -740 0
-569 568 0
-569 740 0
570 -925 -567 0
-570 925 0
-570 567 0
571 -883 -793 0
-571 883 0
-571 793 0
572 -571 -29 0
-572 571 0
-572 29 0
573 -926 -570 0
-573 926 0
-573 570 0
574 -777 -33 0
-574 777 0
-574 33 0
575 -574 -740 0
-575 574 0
-575 740 0
576 -927 -573 0
-576 927 0
-576 573 0
577 -753 -752 0
-577 753 0
-577 752 0
578 -577 -782 0
-578 577 0
-578 782 0
579 -928 -576 0
-579 928 0
-579 576 0
580 -728 -733 0
-580 728 0
-580 733 0
581 -580 -702 0
-581 580 0
-581 702 0
582 -929 -579 0
-582 929 0
-582 579 0
583 -15 -12 0
-583 15 0
-583 12 0
584 -583 -31 0
-584 583 0
-584 31 0
585 -930 -582 0
-585 930 0
-585 582 0
586 -11 -710 0
-586 11 0
-586 710 0
587 -586 -752 0
-587 586 0
-587 752 0
588 -931 -585 0
-588 931 0
-588 585 0
589 -771 -725 0
-589 771 0
-589 725 0
590 -589 -782 0
-590 589 0
-590 782 0
591 -932 -588 0
-591 932 0
-591 588 0
592 -24 -757 0
-592 24 0
-592 757 0
593 -592 -712 0
-593 592 0
-593 712 0
594 -933 -591 0
-594 933 0
-594 591 0
595 -50 -763 0
-595 50 0
-595 763 0
596 -595 -816 0
-596 595 0
-596 816 0
597 -934 -594 0
-597 934 0
-597 594 0
598 -48 -728 0
-598 48 0
-598 728 0
599 -598 -32 0
-599 598 0
-599 32 0
600 -935 -597 0
-600 935 0
-600 597 0
601 -883 -712 0
-601 883 0
-601 712 0
602 -601 -35 0
-602 601 0
-602 35 0
603 -936 -600 0
-603 936 0
-603 600 0
604 -742 -8 0
-604 742 0
-604 8 0
605 -604 -3 0
-605 604 0
-605 3 0
606 -937 -603 0
-606 937 0
-606 603 0
607 -43 -710 0
-607 43 0
-607 710 0
608 -607 -38 0
-608 607 0
-608 38 0
609 -938 -606 0
-609 938 0
-609 606 0
610 -8 -1 0
-610 8 0
-610 1 0
611 -610 -812 0
-611 610 0
-611 812 0
612 -939 -609 0
-612 939 0
-612 609 0
613 -45 -791 0
-613 45 0
-613 791 0
614 -613 -28 0
-614 613 0
-614 28 0
615 -940 -612 0
-615 940 0
-615 612 0
616 -32 -28 0
-616 32 0
-616 28 0
617 -616 -3 0
-617 616 0
-617 3 0
618 -941 -615 0
-618 941 0
-618 615 0
619 -770 -33 0
-619 770 0
-619 33 0
620 -619 -753 0
-620 619 0
-620 753 0
621 -942 -618 0
-621 942 0
-621 618 0
622 -883 -11 0
-622 883 0
-622 11 0
623 -622 -32 0
-623 622 0
-623 32 0
624 -943 -621 0
-624 943 0
-624 621 0
625 -33 -7 0
-625 33 0
-625 7 0
626 -625 -34 0
-626 625 0
-626 34 0
627 -944 -624 0
-627 944 0
-627 624 0
628 -39 -712 0
-628 39 0
-628 712 0
629 -628 -719 0
-629 628 0
-629 719 0
630 -945 -627 0
-630 945 0
-630 627 0
631 -771 -24 0
-631 771 0
-631 24 0
632 -631 -38 0
-632 631 0
-632 38 0
633 -946 -630 0
-633 946 0
-633 630 0
634 -29 -757 0
-634 29 0
-634 757 0
635 -634 -738 0
-635 634 0
-635 738 0
636 -947 -633 0
-636 947 0
-636 633 0
637 -31 -718 0
-637 31 0
-637 718 0
638 -637 -25 0
-638 637 0
-638 25 0
639 -948 -636 0
-639 948 0
-639 636 0
640 -770 -715 0
-640 770 0
-640 715 0
641 -640 -5 0
-641 640 0
-641 5 0
642 -949 -639 0
-642 949 0
-642 639 0
643 -763 -23 0
-643 763 0
-643 23 0
644 -643 -753 0
-644 643 0
-644 753 0
645 -950 -642 0
-645 950 0
-645 642 0
646 -712 -1 0
-646 712 0
-646 1 0
647 -646 -702 0
-647 646 0
-647 702 0
648 -951 -645 0
-648 951 0
-648 645 0
649 -791 -20 0
-649 791 0
-649 20 0
650 -649 -734 0
-650 649 0
-650 734 0
651 -952 -648 0
-651 952 0
-651 648 0
652 -13 -733 0
-652 13 0
-652 733 0
653 -652 -44 0
-653 652 0
-653 44 0
654 -953 -651 0
-654 953 0
-654 651 0
655 -19 -702 0
-655 19 0
-655 702 0
656 -655 -782 0
-656 655 0
-656 782 0
657 -954 -654 0
-657 954 0
-657 654 0
658 -46 -833 0
-658 46 0
-658 833 0
659 -658 -22 0
-659 658 0
-659 22 0
660 -955 -657 0
-660 955 0
-660 657 0
661 -30 -17 0
-661 30 0
-661 17 0
662 -661 -740 0
-662 661 0
-662 740 0
663 -956 -660 0
-663 956 0
-663 660 0
664 -763 -787 0
-664 763 0
-664 787 0
665 -664 -812 0
-665 664 0
-665 812 0
666 -957 -663 0
-666 957 0
-666 663 0
667 -46 -734 0
-667 46 0
-667 734 0
668 -667 -731 0
-668 667 0
-668 731 0
669 -958 -666 0
-669 958 0
-669 666 0
670 -41 -771 0
-670 41 0
-670 771 0
671 -670 -14 0
-671 670 0
-671 14 0
672 -959 -669 0
-672 959 0
-672 669 0
673 -32 -5 0
-673 32 0
-673 5 0
674 -673 -777 0
-674 673 0
-674 777 0
675 -960 -672 0
-675 960 0
-675 672 0
676 -764 -770 0
-676 764 0
-676 770 0
677 -676 -9 0
-677 676 0
-677 9 0
678 -961 -675 0
-678 961 0
-678 675 0
679 -722 -16 0
-679 722 0
-679 16 0
680 -679 -812 0
-680 679 0
-680 812 0
681 -962 -678 0
-681 962 0
-681 678 0
682 -49 -757 0
-682 49 0
-682 757 0
683 -682 -816 0
-683 682 0
-683 816 0
684 -963 -681 0
-684 963 0
-684 681 0
685 -742 -710 0
-685 742 0
-685 710 0
686 -685 -42 0
-686 685 0
-686 42 0
687 -964 -684 0
-687 964 0
-687 684 0
688 -39 -20 0
-688 39 0
-688 20 0
689 -688 -729 0
-689 688 0
-689 729 0
690 -965 -687 0
-690 965 0
-690 687 0
691 -719 -15 0
-691 719 0
-691 15 0
692 -691 -16 0
-692 691 0
-692 16 0
693 -966 -690 0
-693 966 0
-693 690 0
694 -7 -705 0
-694 7 0
-694 705 0
695 -694 -740 0
-695 694 0
-695 740 0
696 -967 -693 0
-696 967 0
-696 693 0
697 -757 -8 0
-697 757 0
-697 8 0
698 -697 -777 0
-698 697 0
-698 777 0
699 -968 -696 0
-699 968 0
-699 696 0
700 -517 -793 0
-700 517 0
-700 793 0
701 -969 -699 0
-701 969 0
-701 699 0
-702 -2 0
702 2 0
-703 -1 0
703 1 0
-704 -3 0
704 3 0
-705 -6 0
705 6 0
-706 -54 0
706 54 0
-707 -52 0
707 52 0
-708 -8 0
708 8 0
-709 -57 0
709 57 0
-710 -10 0
710 10 0
-711 -60 0
711 60 0
-712 -13 0
712 13 0
-713 -14 0
713 14 0
-714 -63 0
714 63 0
-715 -11 0
715 11 0
-716 -16 0
716 16 0
-717 -66 0
717 66 0
-718 -17 0
718 17 0
-719 -18 0
719 18 0
-720 -69 0
720 69 0
-721 -72 0
721 72 0
-722 -20 0
722 20 0
-723 -75 0
723 75 0
-724 -24 0
724 24 0
-725 -25 0
725 25 0
-726 -78 0
726 78 0
-727 -81 0
727 81 0
-728 -28 0
728 28 0
-729 -29 0
729 29 0
-730 -84 0
730 84 0
-731 -31 0
731 31 0
-732 -87 0
732 87 0
-733 -4 0
733 4 0
-734 -26 0
734 26 0
-735 -90 0
735 90 0
-736 -93 0
736 93 0
-737 -96 0
737 96 0
-738 -35 0
738 35 0
-739 -99 0
739 99 0
-740 -22 0
740 22 0
-741 -102 0
741 102 0
-742 -36 0
742 36 0
-743 -105 0
743 105 0
-744 -108 0
744 108 0
-745 -15 0
745 15 0
-746 -111 0
746 111 0
-747 -114 0
747 114 0
-748 -117 0
748 117 0
-749 -120 0
749 120 0
-750 -123 0
750 123 0
-751 -126 0
751 126 0
-752 -9 0
752 9 0
-753 -32 0
753 32 0
-754 -129 0
754 129 0
-755 -132 0
755 132 0
-756 -21 0
756 21 0
-757 -12 0
757 12 0
-758 -135 0
758 135 0
-759 -138 0
759 138 0
-760 -141 0
760 141 0
-761 -40 0
761 40 0
-762 -144 0
762 144 0
-763 -39 0
763 39 0
-764 -41 0
764 41 0
-765 -147 0
765 147 0
-766 -150 0
766 150 0
-767 -7 0
767 7 0
-768 -153 0
768 153 0
-769 -156 0
769 156 0
-770 -34 0
770 34 0
-771 -27 0
771 27 0
-772 -159 0
772 159 0
-773 -162 0
773 162 0
-774 -44 0
774 44 0
-775 -165 0
775 165 0
-776 -168 0
776 168 0
-777 -42 0
777 42 0
-778 -171 0
778 171 0
-779 -174 0
779 174 0
-780 -177 0
780 177 0
-781 -45 0
781 45 0
-782 -38 0
782 38 0
-783 -180 0
783 180 0
-784 -183 0
784 183 0
-785 -46 0
785 46 0
-786 -186 0
786 186 0
-787 -37 0
787 37 0
-788 -189 0
788 189 0
-789 -192 0
789 192 0
-790 -195 0
790 195 0
-791 -23 0
791 23 0
-792 -198 0
792 198 0
-793 -5 0
793 5 0
-794 -201 0
794 201 0
-795 -204 0
795 204 0
-796 -207 0
796 207 0
-797 -49 0
797 49 0
-798 -210 0
798 210 0
-799 -213 0
799 213 0
-800 -216 0
800 216 0
-801 -219 0
801 219 0
-802 -222 0
802 222 0
-803 -225 0
803 225 0
-804 -228 0
804 228 0
-805 -231 0
805 231 0
-806 -234 0
806 234 0
-807 -50 0
807 50 0
-808 -237 0
808 237 0
-809 -240 0
809 240 0
-810 -243 0
810 243 0
-811 -246 0
811 246 0
-812 -47 0
812 47 0
-813 -249 0
813 249 0
-814 -252 0
814 252 0
-815 -255 0
815 255 0
-816 -19 0
816 19 0
-817 -258 0
817 258 0
-818 -261 0
818 261 0
-819 -43 0
819 43 0
-820 -264 0
820 264 0
-821 -267 0
821 267 0
-822 -270 0
822 270 0
-823 -273 0
823 273 0
-824 -276 0
824 276 0
-825 -279 0
825 279 0
-826 -282 0
826 282 0
-827 -285 0
827 285 0
-828 -288 0
828 288 0
-829 -291 0
829 291 0
-830 -294 0
830 294 0
-831 -297 0
831 297 0
-832 -300 0
832 300 0
-833 -33 0
833 33 0
-834 -303 0
834 303 0
-835 -306 0
835 306 0
-836 -309 0
836 309 0
-837 -312 0
837 312 0
-838 -315 0
838 315 0
-839 -318 0
839 318 0
-840 -321 0
840 321 0
-841 -324 0
841 324 0
-842 -327 0
842 327 0
-843 -330 0
843 330 0
-844 -333 0
844 333 0
-845 -336 0
845 336 0
-846 -339 0
846 339 0
-847 -342 0
847 342 0
-848 -345 0
848 345 0
-849 -48 0
849 48 0
-850 -348 0
850 348 0
-851 -351 0
851 351 0
-852 -354 0
852 354 0
-853 -357 0
853 357 0
-854 -360 0
854 360 0
-855 -363 0
855 363 0
-856 -366 0
856 366 0
-857 -369 0
857 369 0
-858 -372 0
858 372 0
-859 -375 0
859 375 0
-860 -378 0
860 378 0
-861 -381 0
861 381 0
-862 -384 0
862 384 0
-863 -387 0
863 387 0
-864 -390 0
864 390 0
-865 -393 0
865 393 0
-866 -396 0
866 396 0
-867 -399 0
867 399 0
-868 -402 0
868 402 0
-869 -405 0
869 405 0
-870 -408 0
870 408 0
-871 -411 0
871 411 0
-872 -414 0
872 414 0
-873 -417 0
873 417 0
-874 -420 0
874 420 0
-875 -423 0
875 423 0
-876 -426 0
876 426 0
-877 -429 0
877 429 0
-878 -432 0
878 432 0
-879 -435 0
879 435 0
-880 -438 0
880 438 0
-881 -441 0
881 441 0
-882 -444 0
882 444 0
-883 -30 0
883 30 0
-884 -447 0
884 447 0
-885 -450 0
885 450 0
-886 -453 0
886 453 0
-887 -456 0
887 456 0
-888 -459 0
888 459 0
-889 -462 0
889 462 0
-890 -465 0
890 465 0
-891 -468 0
891 468 0
-892 -471 0
892 471 0
-893 -474 0
893 474 0
-894 -477 0
894 477 0
-895 -480 0
895 480 0
-896 -483 0
896 483 0
-897 -486 0
897 486 0
-898 -489 0
898 489 0
-899 -492 0
899 492 0
-900 -495 0
900 495 0
-901 -497 0
901 497 0
-902 -500 0
902 500 0
-903 -503 0
903 503 0
-904 -506 0
904 506 0
-905 -509 0
905 509 0
-906 -512 0
906 512 0
-907 -515 0
907 515 0
-908 -518 0
908 518 0
-909 -521 0
909 521 0
-910 -524 0
910 524 0
-911 -527 0
911 527 0
-912 -530 0
912 530 0
-913 -533 0
913 533 0
-914 -536 0
914 536 0
-915 -539 0
915 539 0
-916 -542 0
916 542 0
-917 -545 0
917 545 0
-918 -548 0
918 548 0
-919 -551 0
919 551 0
-920 -554 0
920 554 0
-921 -557 0
921 557 0
-922 -560 0
922 560 0
-923 -563 0
923 563 0
-924 -566 0
924 566 0
-925 -569 0
925 569 0
-926 -572 0
926 572 0
-927 -575 0
927 575 0
-928 -578 0
928 578 0
-929 -581 0
929 581 0
-930 -584 0
930 584 0
-931 -587 0
931 587 0
-932 -590 0
932 590 0
-933 -593 0
933 593 0
-934 -596 0
934 596 0
-935 -599 0
935 599 0
-936 -602 0
936 602 0
-937 -605 0
937 605 0
-938 -608 0
938 608 0
-939 -611 0
939 611 0
-940 -614 0
940 614 0
-941 -617 0
941 617 0
-942 -620 0
942 620 0
-943 -623 0
943 623 0
-944 -626 0
944 626 0
-945 -629 0
945 629 0
-946 -632 0
946 632 0
-947 -635 0
947 635 0
-948 -638 0
948 638 0
-949 -641 0
949 641 0
-950 -644 0
950 644 0
-951 -647 0
951 647 0
-952 -650 0
952 650 0
-953 -653 0
953 653 0
-954 -656 0
954 656 0
-955 -659 0
955 659 0
-956 -662 0
956 662 0
-957 -665 0
957 665 0
-958 -668 0
958 668 0
-959 -671 0
959 671 0
-960 -674 0
960 674 0
-961 -677 0
961 677 0
-962 -680 0
962 680 0
-963 -683 0
963 683 0
-964 -686 0
964 686 0
-965 -689 0
965 689 0
-966 -692 0
966 692 0
-967 -695 0
967 695 0
-968 -698 0
968 698 0
-969 -700 0
969 700 0
701 0
